NAME: GRASP_22_1
TYPE: TSP
COMMENT: line_22_1
DIMENSION: 22
EDGE_WEIGHT_TYPE: EUC_2D
NODE_COORD_SECTION
1 1533 1981
2 2202 766
3 1456 1717
4 2417 1966
5 3196 1747
6 2933 1755
7 4495 2498
8 2225 334
9 1194 3271
10 395 13
11 3828 3306
12 3297 3662
13 2822 4312
14 2064 220
15 3303 4405
16 4507 67
17 425 1087
18 684 1060
19 2658 2977
20 1014 3598
21 3051 2725
22 1533 2889
